10
0 12 20 19 14 6 7 9 16 17 
11 0 6 13 13 19 6 14 18 9 
20 18 0 13 12 11 5 2 8 3 
7 16 1 0 15 16 4 18 14 17 
15 1 16 20 0 7 4 3 7 16 
9 9 14 11 2 0 7 10 19 18 
2 4 6 12 1 15 0 2 10 3 
17 4 8 11 9 16 14 0 1 13 
15 2 15 12 5 19 12 6 0 19 
15 19 18 8 9 11 5 11 2 0 
